5927 405  0
5927 417  1
5939 334  1
5934 375  1
5927 391  1
5927 417  3
5927 477  4
5927 296  4
5927 515  5
5927 267  6
5927 423  7
5927 353  8
5927 511  10
5940 498  10
5927 511  11
5927 475  12
5928 352  13
5927 378  13
5927 456  14
5927 611  15
5927 518  16
5965 497  17
5927 502  17
5927 318  18
5927 361  19
5927 419  19
5927 359  20
5927 377  21
5927 342  22
5927 454  23
5945 412  24
5927 426  24
5927 438  25
5927 406  26
5927 362  27
5927 245  28
5927 453  29
5927 351  30
5927 537  31
5931 534  31
5969 499  31
5927 371  32
5927 387  33
5927 451  34
5927 387  35
5927 358  36
5927 390  37
5947 488  39
5927 511  39
5927 370  40
5927 233  41
5927 329  42
5927 388  43
5927 380  44
5927 430  45
5927 281  46
5927 314  47
5927 386  48
5927 380  49
